10,1,2,1,6,4,6,5,10,4,8,4,1,5,9,7,3,8,9,9,5,10;8,1,1,2,9,3,5,4,9,4,9,5,2,5,4,5,3,7,1,8,4,8,9,10,7,10;5,1,3,5,5,5,7,6,4,9,10,10;9,1,6,3,9,2,3,4,8,3,1,3,10,6,1,6,6,9,2,7,5,8,5,9,3,10;7,1,4,2,4,3,2,4,1,4,8,6,2,6,2,8,7,9,2,10;3,1,1,1,5,2,2,2,2,3,4,4,8,5,1,7,10,8,8,8,8,9;8,2,6,6,7,5,7,7,1,10,8,10;6,2,7,2,10,3,7,4,6,7,10,7,1,9,6,10,10,9;4,1,3,2,3,3,7,3,3,6,5,6,4,6,6,8,8,7,3,9,4,10;6,1,10,2,5,3,10,5,9,6,5,7,4,7,9,8,7,8,2,9;
